NAME lp_typeD_771
OBJSENSE MAX
ROWS
 N  OBJ
 L  c0      
 G  c1      
 G  c2      
 L  c_key_upper
 G  c_key_lower
 G  _chain_constr_1
 G  _chain_constr_2
 G  _chain_constr_3
 G  _chain_cycle
COLUMNS
    x0        OBJ       8.8359915645224518e-01
    x0        c0        1.1539474226498347e+00
    x0        c1        1.8085635916755862e+00
    x0        c2        1.2699245862400328e+00
    x0        c_key_upper  1.0336348214693036e+00
    x0        c_key_lower  1.0336348214693036e+00
    x1        OBJ       1.4469569607281954e+00
    x1        c0        1.6354822754576022e+00
    x1        c1        8.2076971818420419e-01
    x1        c2        5.1779824673392738e-01
    x1        c_key_upper  1.2951953439980677e+00
    x1        c_key_lower  1.2951953439980677e+00
    x2        OBJ       9.8762386716184192e-01
    x2        c0        1.56233990175765
    x2        c1        1.2079004691903032e+00
    x2        c2        1.9392765866707720e+00
    x2        c_key_upper  1.2455081861798791e+00
    x2        c_key_lower  1.2455081861798791e+00
    x3        OBJ       5.4683242660673348e-01
    x3        c0        0.592369337315453
    x3        c1        1.6785871314999468e+00
    x3        c2        1.2460089267881085e+00
    x3        c_key_upper  1.0125872048159186e+00
    x3        c_key_lower  1.0125872048159186e+00
    x4        OBJ       6.2900233724287957e-01
    x4        c0        6.8232146658359227e-01
    x4        c1        1.8486158700564106e+00
    x4        c2        1.2734834016012606e+00
    x4        c_key_upper  1.2599886845124684e+00
    x4        c_key_lower  1.2599886845124684e+00
    x5        OBJ       9.6848333264518660e-01
    x5        c0        7.4810728193741616e-01
    x5        c1        7.4996814714251447e-01
    x5        c2        1.9454416519573128e+00
    x5        c_key_upper  1.1035075869723161e+00
    x5        c_key_lower  1.1035075869723161e+00
    x6        OBJ       1.0492537655447913e+00
    x6        c0        6.8751562038253611e-01
    x6        c1        1.5146122168924379e+00
    x6        c2        0.738970088048048
    x6        c_key_upper  1.7652102490232076e+00
    x6        c_key_lower  1.7652102490232076e+00
    x7        OBJ       1.0980011493329436e+00
    x7        c0        1.2285345549609783e+00
    x7        c1        5.5070803204600971e-01
    x7        c2        1.4273135356171638e+00
    x7        c_key_upper  1.4602359702908891e+00
    x7        c_key_lower  1.4602359702908891e+00
    _chain_var_0  _chain_constr_1  -1
    _chain_var_0  _chain_cycle  1
    _chain_var_1  _chain_constr_1  1
    _chain_var_1  _chain_constr_2  -1
    _chain_var_2  _chain_constr_2  1
    _chain_var_2  _chain_constr_3  -1
    _chain_var_3  _chain_constr_3  1
    _chain_var_3  _chain_cycle  -1
RHS
    RHS1      c0        3.5902442264259413e+01
    RHS1      c1        1.8268422559148593e+01
    RHS1      c2        1.0667775477393812e+01
    RHS1      c_key_upper  5.0879340236310249e+01
    RHS1      c_key_lower  2.5439670118155124e+01
    RHS1      _chain_constr_1  10
    RHS1      _chain_constr_2  10
    RHS1      _chain_constr_3  10
    RHS1      _chain_cycle  10
BOUNDS
 UP BND1      x0        10
 UP BND1      x1        10
 UP BND1      x2        10
 UP BND1      x3        10
 UP BND1      x4        10
 UP BND1      x5        10
 UP BND1      x6        10
 UP BND1      x7        10
 UP BND1      _chain_var_0  100
 UP BND1      _chain_var_1  100
 UP BND1      _chain_var_2  100
 UP BND1      _chain_var_3  100
ENDATA
